100
120
96
95
94
93
93
93
91
91
90
90
89
89
88
87
86
85
85
85
85
83
82
82
81
80
79
78
76
76
76
75
73
73
73
73
72
71
70
70
70
68
67
65
65
65
64
64
63
62
60
59
56
55
55
54
54
52
52
50
50
49
49
49
49
49
48
47
47
47
46
46
45
45
41
39
38
37
35
35
34
33
29
29
29
28
25
23
22
22
22
21
20
20
18
16
15
15
15
14
14
13
